c description: Random 3-CNF over 13 variables and 26 clauses
p cnf 13 26
-7 -12 13 0
-5 -12 -13 0
1 4 13 0
-4 -7 10 0
-1 -9 13 0
-1 -2 4 0
2 -4 -5 0
-5 -6 10 0
1 5 6 0
-8 10 -11 0
2 3 11 0
6 7 10 0
3 4 -9 0
-1 -6 -13 0
5 6 -13 0
-6 9 13 0
-2 -3 -5 0
-3 -4 12 0
-2 -7 -10 0
6 8 9 0
2 3 -9 0
5 -10 12 0
3 7 -8 0
3 4 7 0
-5 -11 12 0
-1 -7 11 0